modeles/2_9.lp
minimize
obj: 1 x_1_ + 1 x_2_
subject to
c1_1: 1 t_1,1_ - 1 y_1,1_ <= 0
c2_1: 1 t_1,2_ - 1 y_1,1_ - 1 y_1,2_ <= 0
c3_1: 1 t_1,3_ - 1 y_1,2_ - 1 y_1,3_ <= 0
c4_1: 1 t_1,4_ - 1 y_1,3_ - 1 y_1,4_ <= 0
c5_1: 1 t_1,5_ - 1 y_1,4_ - 1 y_1,5_ <= 0
c6_1: 1 t_1,6_ - 1 y_1,5_ - 1 y_1,6_ <= 0
c7: 1 t_1,7_ - 1 y_1,6_ - 1 y_1,7_ <= 0
c8: 1 t_1,8_ - 1 y_1,7_ - 1 y_1,8_ <= 0
c9: 1 t_1,9_ - 1 y_1,8_ - 1 y_1,9_ <= 0
c10: 1 t_1,10_ - 1 y_1,9_ <= 0
c11: 1 t_2,1_ - 1 y_2,1_ <= 0
c12: 1 t_2,2_ - 1 y_2,1_ - 1 y_2,2_ <= 0
c13: 1 t_2,3_ - 1 y_2,2_ - 1 y_2,3_ <= 0
c14: 1 t_2,4_ - 1 y_2,3_ - 1 y_2,4_ <= 0
c15: 1 t_2,5_ - 1 y_2,4_ - 1 y_2,5_ <= 0
c16: 1 t_2,6_ - 1 y_2,5_ - 1 y_2,6_ <= 0
c17: 1 t_2,7_ - 1 y_2,6_ - 1 y_2,7_ <= 0
c18: 1 t_2,8_ - 1 y_2,7_ - 1 y_2,8_ <= 0
c19: 1 t_2,9_ - 1 y_2,8_ - 1 y_2,9_ <= 0
c20: 1 t_2,10_ - 1 y_2,9_ <= 0
c21: 4 t_1,1_ + 4 t_2,1_ + 2.4197530864197523 t_1,2_ + 2.4197530864197523 t_2,2_ + 1.234567901234568 t_1,3_ + 1.234567901234568 t_2,3_ + 0.4444444444444447 t_1,4_ + 0.4444444444444447 t_2,4_ + 0.04938271604938276 t_1,5_ + 0.04938271604938276 t_2,5_ + 0.04938271604938276 t_1,6_ + 0.04938271604938276 t_2,6_ + 0.44444444444444425 t_1,7_ + 0.44444444444444425 t_2,7_ + 1.234567901234568 t_1,8_ + 1.234567901234568 t_2,8_ + 2.4197530864197523 t_1,9_ + 2.4197530864197523 t_2,9_ + 4 t_1,10_ + 4 t_2,10_ <= 1
c1: 1 y_1,1_ + 1 y_1,2_ + 1 y_1,3_ + 1 y_1,4_ + 1 y_1,5_ + 1 y_1,6_ + 1 y_1,7_ + 1 y_1,8_ + 1 y_1,9_ = 1
c2: 1 t_1,1_ + 1 t_1,2_ + 1 t_1,3_ + 1 t_1,4_ + 1 t_1,5_ + 1 t_1,6_ + 1 t_1,7_ + 1 t_1,8_ + 1 t_1,9_ + 1 t_1,10_ = 1
c3: -2 t_1,1_ - 1.5555555555555554 t_1,2_ - 1.1111111111111112 t_1,3_ - 0.6666666666666669 t_1,4_ - 0.22222222222222232 t_1,5_ + 0.22222222222222232 t_1,6_ + 0.6666666666666665 t_1,7_ + 1.1111111111111112 t_1,8_ + 1.5555555555555554 t_1,9_ + 2 t_1,10_ - 1 x_1_ = 0
c4: 1 y_2,1_ + 1 y_2,2_ + 1 y_2,3_ + 1 y_2,4_ + 1 y_2,5_ + 1 y_2,6_ + 1 y_2,7_ + 1 y_2,8_ + 1 y_2,9_ = 1
c5: 1 t_2,1_ + 1 t_2,2_ + 1 t_2,3_ + 1 t_2,4_ + 1 t_2,5_ + 1 t_2,6_ + 1 t_2,7_ + 1 t_2,8_ + 1 t_2,9_ + 1 t_2,10_ = 1
c6: -2 t_2,1_ - 1.5555555555555554 t_2,2_ - 1.1111111111111112 t_2,3_ - 0.6666666666666669 t_2,4_ - 0.22222222222222232 t_2,5_ + 0.22222222222222232 t_2,6_ + 0.6666666666666665 t_2,7_ + 1.1111111111111112 t_2,8_ + 1.5555555555555554 t_2,9_ + 2 t_2,10_ - 1 x_2_ = 0
Bounds
x_1_ <= 2
x_2_ <= 2
t_1,1_ >= 0
t_2,1_ >= 0
t_1,2_ >= 0
t_2,2_ >= 0
t_1,3_ >= 0
t_2,3_ >= 0
t_1,4_ >= 0
t_2,4_ >= 0
t_1,5_ >= 0
t_2,5_ >= 0
t_1,6_ >= 0
t_2,6_ >= 0
t_1,7_ >= 0
t_2,7_ >= 0
t_1,8_ >= 0
t_2,8_ >= 0
t_1,9_ >= 0
t_2,9_ >= 0
t_1,10_ >= 0
t_2,10_ >= 0
x_1_ >= -2
x_2_ >= -2
Binary
y_1,1_
y_2,1_
y_1,2_
y_2,2_
y_1,3_
y_2,3_
y_1,4_
y_2,4_
y_1,5_
y_2,5_
y_1,6_
y_2,6_
y_1,7_
y_2,7_
y_1,8_
y_2,8_
y_1,9_
y_2,9_
End
