res_glpk/2_9.log
GLPSOL--GLPK LP/MIP Solver 5.0
Parameter(s) specified in the command line:
 --lp ../modeles/2_9.lp --log 2_9.log
Reading problem data from '../modeles/2_9.lp'...
27 rows, 40 columns, 136 non-zeros
18 integer variables, all of which are binary
75 lines were read
GLPK Integer Optimizer 5.0
27 rows, 40 columns, 136 non-zeros
18 integer variables, all of which are binary
Preprocessing...
20 constraint coefficient(s) were reduced
27 rows, 38 columns, 134 non-zeros
18 integer variables, all of which are binary
Scaling...
 A: min|aij| =  4.938e-02  max|aij| =  4.000e+00  ratio =  8.100e+01
GM: min|aij| =  3.333e-01  max|aij| =  3.000e+00  ratio =  9.000e+00
EQ: min|aij| =  1.111e-01  max|aij| =  1.000e+00  ratio =  9.000e+00
2N: min|aij| =  9.877e-02  max|aij| =  1.620e+00  ratio =  1.640e+01
Constructing initial basis...
Size of triangular part is 27
Solving LP relaxation...
GLPK Simplex Optimizer 5.0
27 rows, 38 columns, 134 non-zeros
      0: obj =   4.000000000e+00 inf =   9.500e+00 (5)
      9: obj =   4.562500000e-01 inf =   0.000e+00 (0)
*    30: obj =  -1.395833333e+00 inf =   0.000e+00 (0)
OPTIMAL LP SOLUTION FOUND
Integer optimization begins...
Long-step dual simplex will be used
+    30: mip =     not found yet >=              -inf        (1; 0)
+    36: >>>>>  -1.395833333e+00 >=  -1.395833333e+00   0.0% (7; 0)
+    36: mip =  -1.395833333e+00 >=     tree is empty   0.0% (0; 13)
INTEGER OPTIMAL SOLUTION FOUND
Time used:   0.0 secs
Memory used: 0.1 Mb (109552 bytes)
